p cnf 180 316               
-1 37 0
-8 37 0
1 8 -37 0
37 77 0
-2 38 0
-9 38 0
2 9 -38 0
38 44 0
37 44 0
-38 -37 -44 0
44 -56 0
-37 45 0
-38 45 0
37 38 -45 0
45 46 0
-3 39 0
-10 39 0
3 10 -39 0
39 46 0
-45 -39 -46 0
46 -56 0
-39 47 0
-45 47 0
39 45 -47 0
47 48 0
-4 40 0
-11 40 0
4 11 -40 0
40 48 0
-47 -40 -48 0
48 -56 0
-40 49 0
-47 49 0
40 47 -49 0
49 50 0
-5 41 0
-12 41 0
5 12 -41 0
41 50 0
-49 -41 -50 0
50 -56 0
-41 51 0
-49 51 0
41 49 -51 0
51 52 0
-6 42 0
-13 42 0
6 13 -42 0
42 52 0
-51 -42 -52 0
52 -56 0
-42 53 0
-51 53 0
42 51 -53 0
53 54 0
-7 43 0
-14 43 0
7 14 -43 0
43 54 0
-53 -43 -54 0
54 -56 0
-43 55 0
-53 55 0
43 53 -55 0
55 -56 0
-44 -46 -48 -50 -52 -54 -55 56 0
-56 -37 70 0
56 -15 70 0
-37 -15 70 0
-70 77 0
38 78 0
-56 -38 71 0
56 -16 71 0
-38 -16 71 0
-71 78 0
39 79 0
-56 -39 72 0
56 -17 72 0
-39 -17 72 0
-72 79 0
40 80 0
-56 -40 73 0
56 -18 73 0
-40 -18 73 0
-73 80 0
41 81 0
-56 -41 74 0
56 -19 74 0
-41 -19 74 0
-74 81 0
42 82 0
-56 -42 75 0
56 -20 75 0
-42 -20 75 0
-75 82 0
43 83 0
-56 -43 76 0
56 -21 76 0
-43 -21 76 0
-76 83 0
-77 -78 -79 -80 -81 -82 -83 84 0
-84 -85 0
-14 33 0
-13 32 0
-12 31 0
-11 30 0
-10 29 0
-8 28 0
-9 28 0
8 9 -28 0
-28 29 0
10 28 -29 0
-29 30 0
11 29 -30 0
-30 31 0
12 30 -31 0
-31 32 0
13 31 -32 0
-32 33 0
14 32 -33 0
-7 27 0
-6 26 0
-5 25 0
-4 24 0
-3 23 0
-1 22 0
-2 22 0
1 2 -22 0
-22 23 0
3 22 -23 0
-23 24 0
4 23 -24 0
-24 25 0
5 24 -25 0
-25 26 0
6 25 -26 0
-26 27 0
7 26 -27 0
-33 -27 -34 0
34 -36 0
27 33 -35 0
35 -36 0
36 -85 0
56 -85 0
-16 -15 -57 0
57 -69 0
-15 58 0
-16 58 0
15 16 -58 0
-58 -17 -59 0
59 -69 0
-17 60 0
-58 60 0
17 58 -60 0
-60 -18 -61 0
61 -69 0
-18 62 0
-60 62 0
18 60 -62 0
-62 -19 -63 0
63 -69 0
-19 64 0
-62 64 0
19 62 -64 0
-64 -20 -65 0
65 -69 0
-20 66 0
-64 66 0
20 64 -66 0
-66 -21 -67 0
67 -69 0
21 66 -68 0
68 -69 0
69 -85 0
-1 8 -86 0
86 -112 0
-1 -8 87 0
1 8 87 0
-8 8 87 0
-2 9 -88 0
-87 88 -89 0
89 -112 0
-2 -9 90 0
2 9 90 0
-9 9 90 0
-87 -90 91 0
-3 10 -92 0
-91 92 -93 0
93 -112 0
-3 -10 94 0
3 10 94 0
-10 10 94 0
-91 -94 95 0
-4 11 -96 0
-95 96 -97 0
97 -112 0
-4 -11 98 0
4 11 98 0
-11 11 98 0
-95 -98 99 0
-5 12 -100 0
-99 100 -101 0
101 -112 0
-5 -12 102 0
5 12 102 0
-12 12 102 0
-99 -102 103 0
-6 13 -104 0
-103 104 -105 0
105 -112 0
-6 -13 106 0
6 13 106 0
-13 13 106 0
-103 -106 107 0
-7 14 -108 0
-107 108 -109 0
109 -112 0
112 -179 0
-15 16 -113 0
113 -123 0
-15 -16 114 0
15 16 114 0
-16 16 114 0
-1 2 -115 0
-114 115 -116 0
116 -123 0
-1 -2 117 0
1 2 117 0
-2 2 117 0
-114 -117 118 0
-8 9 -119 0
-118 119 -120 0
120 -123 0
123 -179 0
-16 17 -124 0
124 -134 0
-16 -17 125 0
16 17 125 0
-17 17 125 0
-2 3 -126 0
-125 126 -127 0
127 -134 0
-2 -3 128 0
2 3 128 0
-3 3 128 0
-125 -128 129 0
-9 10 -130 0
-129 130 -131 0
131 -134 0
134 -179 0
-17 18 -135 0
135 -145 0
-17 -18 136 0
17 18 136 0
-18 18 136 0
-3 4 -137 0
-136 137 -138 0
138 -145 0
-3 -4 139 0
3 4 139 0
-4 4 139 0
-136 -139 140 0
-10 11 -141 0
-140 141 -142 0
142 -145 0
145 -179 0
-18 19 -146 0
146 -156 0
-18 -19 147 0
18 19 147 0
-19 19 147 0
-4 5 -148 0
-147 148 -149 0
149 -156 0
-4 -5 150 0
4 5 150 0
-5 5 150 0
-147 -150 151 0
-11 12 -152 0
-151 152 -153 0
153 -156 0
156 -179 0
-19 20 -157 0
157 -167 0
-19 -20 158 0
19 20 158 0
-20 20 158 0
-5 6 -159 0
-158 159 -160 0
160 -167 0
-5 -6 161 0
5 6 161 0
-6 6 161 0
-158 -161 162 0
-12 13 -163 0
-162 163 -164 0
164 -167 0
167 -179 0
-20 21 -168 0
168 -178 0
-20 -21 169 0
20 21 169 0
-21 21 169 0
-6 7 -170 0
-169 170 -171 0
171 -178 0
-6 -7 172 0
6 7 172 0
-7 7 172 0
-169 -172 173 0
-13 14 -174 0
-173 174 -175 0
175 -178 0
178 -179 0
85 0
179 0
